(declare-const a Real)
(declare-const b Real)
(declare-const c Real)
(assert (= (* a b c) 1))
(assert (> a 0))
(assert (> b 0))
(assert (> c 0))
(assert (not (<= (+ (* -922640384 (pow b 4)) (* -711876608 (pow a 4)) (* 1109952 (pow (+ (* 2 a) (* 2 b)) 4)) (* -2717908992 (pow a (/ 4 3)) (pow b (/ 8 3))) (* 917405696 b (pow a 3)) (* 3150872576 a (pow b 3))) 0)))
(check-sat)
(get-model)
(exit)